
<<< setup

Tried aggregator 1 time.
LP Presolve eliminated 120 rows and 87 columns.
Reduced LP has 3 rows, 20 columns, and 20 nonzeros.
Presolve time = 0.00 sec. (0.05 ticks)

Iteration log . . .
Iteration:     1   Dual objective     =          1487.103827
main returns 0

<<< main


<<< done

